! b3lyp tightopt freq NEARIR

 %pal 
 nprocs 4 
 end 
 
 %maxcore 1500 

* XYZ 0 1
C     -2.4965386872   -0.8091378971    1.1964596283
O     -1.1054132637   -0.8910034447    0.9028931745
C     -3.1783475114   -2.0393629682    0.6192423668
H     -0.6781867681   -0.1068531434    1.2877755307
H     -2.9168550476    0.5019182593   -0.4809509422
C     -3.0620548308    0.4731639486    0.6045784363
H     -4.1306141496    0.5721895320    0.8192797958
H     -3.0162030841   -2.1076792275   -0.4623502821
H     -2.6137156649   -0.8024179165    2.2856309042
H     -2.5423431844    1.3461613346    1.0143811714
H     -4.2551330833   -2.0267722905    0.8133832439
H     -2.7554873473   -2.9499086340    1.0574565365
*
